Minimize
  - 19 y_0 - 13 y_1 - 34 y_2 - 32 y_3 - 11 y_4 - 20 y_5 - 9 y_6 - 12 y_7
   - 16 y_8 - 10 y_9 - 19 y_10 - 18 y_11 - 10 y_12 - 7 y_13 - 24 y_14
   - 27 y_15 - 15 y_16 - 27 y_17 - 10 y_18 - 21 y_19 - 21 y_20 - 9 y_21
   - 14 y_22 - 22 y_23 - 17 y_24 - 9 y_25 - 24 y_26 - 7 y_28 - 13 y_29
   - 19 y_30 - 21 y_31 - 30 y_32 - 24 y_33 - 33 y_34 - 21 y_35 - 9 y_36
   - 22 y_37 - 26 y_38 - 15 y_39 - 26 y_40 - 17 y_41 - 30 y_42 - 3 y_43
   - 11 y_44 - 25 y_45 - 24 y_46 - 10 y_47 - 23 y_48 - 26 y_49
   + 905 Constant
Subject To
 c_0: y_24 = 1
 c_1_0: y_0 + y_23 >= 1
 c_1_1: y_1 + y_9 + y_12 + y_29 + y_39 >= 1
 c_1_2: y_2 + y_42 >= 1
 c_1_3: y_3 >= 1
 c_1_4: y_4 + y_13 + y_28 >= 1
 c_1_5: y_5 + y_20 >= 1
 c_1_6: y_6 >= 1
 c_1_7: y_7 + y_9 + y_22 >= 1
 c_1_8: y_8 + y_22 >= 1
 c_1_9: y_1 + y_7 + y_9 + y_22 >= 1
 c_1_10: y_10 >= 1
 c_1_11: y_11 + y_31 + y_39 >= 1
 c_1_12: y_1 + y_12 + y_13 + y_28 + y_29 >= 1
 c_1_13: y_4 + y_12 + y_13 + y_28 >= 1
 c_1_14: y_14 >= 1
 c_1_15: y_15 + y_32 + y_42 >= 1
 c_1_16: y_16 >= 1
 c_1_17: y_17 >= 1
 c_1_18: y_18 >= 1
 c_1_19: y_19 + y_45 + y_46 >= 1
 c_1_20: y_5 + y_20 >= 1
 c_1_21: y_21 + y_36 + y_47 >= 1
 c_1_22: y_7 + y_8 + y_9 + y_22 >= 1
 c_1_23: y_0 + y_23 >= 1
 c_1_24: y_24 + y_30 + y_35 >= 1
 c_1_25: y_25 >= 1
 c_1_26: y_26 >= 1
 c_1_27: y_27 + y_43 >= 1
 c_1_28: y_4 + y_12 + y_13 + y_28 >= 1
 c_1_29: y_1 + y_12 + y_29 + y_39 >= 1
 c_1_30: y_24 + y_30 >= 1
 c_1_31: y_11 + y_31 + y_38 >= 1
 c_1_32: y_15 + y_32 + y_42 >= 1
 c_1_33: y_33 >= 1
 c_1_34: y_34 >= 1
 c_1_35: y_24 + y_35 + y_37 >= 1
 c_1_36: y_21 + y_36 + y_47 >= 1
 c_1_37: y_35 + y_37 + y_49 >= 1
 c_1_38: y_31 + y_38 >= 1
 c_1_39: y_1 + y_11 + y_29 + y_39 >= 1
 c_1_40: y_40 >= 1
 c_1_41: y_41 >= 1
 c_1_42: y_2 + y_15 + y_32 + y_42 >= 1
 c_1_43: y_27 + y_43 >= 1
 c_1_44: y_44 >= 1
 c_1_45: y_19 + y_45 + y_46 >= 1
 c_1_46: y_19 + y_45 + y_46 >= 1
 c_1_47: y_21 + y_36 + y_47 >= 1
 c_1_48: y_48 >= 1
 c_1_49: y_37 + y_49 >= 1
Bounds
 Constant = 1
Binaries
 y_0 y_1 y_2 y_3 y_4 y_5 y_6 y_7 y_8 y_9 y_10 y_11 y_12 y_13 y_14 y_15 y_16
 y_17 y_18 y_19 y_20 y_21 y_22 y_23 y_24 y_25 y_26 y_27 y_28 y_29 y_30 y_31
 y_32 y_33 y_34 y_35 y_36 y_37 y_38 y_39 y_40 y_41 y_42 y_43 y_44 y_45 y_46
 y_47 y_48 y_49
End
